unknown
(model
; cardinality of BoundSet is 3
(declare-sort BoundSet 0)
; rep: @uc_BoundSet_0
; rep: @uc_BoundSet_1
; rep: @uc_BoundSet_2
; cardinality of UnboundSet is 1
(declare-sort UnboundSet 0)
(declare-fun groundTerm_4 () UnboundSet)
(define-fun OrderedMilitaryStrike ((BOUND_VARIABLE_423 BoundSet) (BOUND_VARIABLE_424 BoundSet)) Bool true)
(define-fun KilledCivilians ((BOUND_VARIABLE_423 BoundSet) (BOUND_VARIABLE_424 BoundSet)) Bool true)
(define-fun IsMassMurderer ((BOUND_VARIABLE_433 BoundSet)) Bool false)
(define-fun IsSameAs ((BOUND_VARIABLE_423 BoundSet) (BOUND_VARIABLE_424 BoundSet)) Bool false)
(define-fun BelongsInPrison ((BOUND_VARIABLE_423 BoundSet) (BOUND_VARIABLE_424 BoundSet)) Bool false)
)
sat
(model
; cardinality of BoundSet is 1
(declare-sort BoundSet 0)
; rep: @uc_BoundSet_0
; cardinality of UnboundSet is 1
(declare-sort UnboundSet 0)
(declare-fun groundTerm_6 () UnboundSet)
(define-fun OrderedMilitaryStrike ((BOUND_VARIABLE_485 BoundSet) (BOUND_VARIABLE_486 BoundSet)) Bool true)
(define-fun KilledCivilians ((BOUND_VARIABLE_485 BoundSet) (BOUND_VARIABLE_486 BoundSet)) Bool true)
(define-fun IsMassMurderer ((BOUND_VARIABLE_492 BoundSet)) Bool false)
(define-fun IsSameAs ((BOUND_VARIABLE_485 BoundSet) (BOUND_VARIABLE_486 BoundSet)) Bool true)
(define-fun BelongsInPrison ((BOUND_VARIABLE_485 BoundSet) (BOUND_VARIABLE_486 BoundSet)) Bool true)
)
